n_students = 32;
n_topics = 20;
single_topics_ids = {20};
student_wants_list = [{17,11,17,5},{5,9,2,13,9},{2,4},{15,20,5},{6,5,14,3},{5,10},{8,16,13,17,4,15,14},{1,16,4,20,15},{19,14,16},{2,6,12,13},{16,16,8},{12,11,20,7,7,9},{11,10},{18,1,10,2},{8,5},{10,11,6,9,20,13},{5,20,1,12,20,14,18,2},{1,3,17},{15,12,2,14,20,13},{4,12,12,19,20},{2,10,8,14,18,9,3},{15,19,5,19,19},{7,5,7,7,12,16,4},{17,18,11,19,14,19},{16,4,18,3},{2,13,11,1},{9,9,10,13,2,7,11},{16,13,15,20},{7,13,5,17,5},{18,15,3,20},{4,11,6},{7,11,10,17,10,16}];
